Traveling Salesman Problem/TSP_generados/Aleatorio1620390901_8.tsp
NAME: Aleatorio1620390901_8.tsp
COMMENT: Randomly generated scenario
TYPE: TSP
DIMENSION: 8
EDGE_WEIGHT_TYPE: ATT
NODE_COORD_SECTION
1 28.88 24.94
2 3.7 11.04
3 5.66 18.13
4 0.13 49.59
5 27.7 20.85
6 34.15 10.87
7 22.96 29.8
8 39.09 45.99
