Traveling Salesman Problem/TSP_generados/Aleatorio1620390901_8.opt.tour
NAME: Aleatorio1620390901_8.opt.tour
COMMENT: Optimal solution for Aleatorio1620390901_8 (155.52751048687375)
TYPE: TOUR
DIMENSION: 8
TOUR_SECTION
1 5 6 2 3 4 8 7
-1
EOF
